(set-info :smt-lib-version 2.6)
(set-logic QF_SLIA)
(set-info :source |
Generated by: Dmitry Blotsky1, Federico Mora, Murphy Berzish, Yunhui Zheng, Ifaz Kabir, Vijay Ganesh, Zhengyang Lu
Generated on: 2018-01-24
Generator: StringFuzz
Application: Evaluate string solvers
Description: transformed by StringFuzz, a modular string and regex fuzzer, from an industrial benchmark
Target solver: Z3str3, CVC4, Z3str2, Norn
Publications: Blotsky, D., Mora, F., Berzish, M., Zheng, Y., Kabir, I., & Ganesh, V. (2018). Stringfuzz: A fuzzer for string solvers. In CAV 2018.
|)
(set-info :license "https://creativecommons.org/licenses/by/4.0/")
(set-info :category "random")
(set-info :status unknown)

(declare-const x String)
(assert (= (str.to.int x) 39))
(assert (str.in_re x (re.* (str.to_re "=iccejj@_Ecu;'~VR3a2duE*.' '{q4}B[f"))))
(assert (str.in_re x (re.+ (str.to_re "`J{f%&/l4a=NX'\r')kkHTX6*tbbi)[SUk0A#'\x0b'[v>}cd?t{wP$wdR6d#Rkz(m"))))
(check-sat)

(exit)
